certificates/rado_a9_c291_N33.cnf
c Rad2 upper bound instance: x1 + 9*x2 - x3 = 291, interval [1,33]
p cnf 33 186
1 7 33 0
-1 -7 -33 0
2 8 33 0
-2 -8 -33 0
3 9 33 0
-3 -9 -33 0
1 4 32 0
-1 -4 -32 0
4 10 33 0
-4 -10 -33 0
2 5 32 0
-2 -5 -32 0
5 11 33 0
-5 -11 -33 0
3 6 32 0
-3 -6 -32 0
6 12 33 0
-6 -12 -33 0
4 7 32 0
-4 -7 -32 0
7 13 33 0
-7 -13 -33 0
5 8 32 0
-5 -8 -32 0
8 14 33 0
-8 -14 -33 0
6 9 32 0
-6 -9 -32 0
9 15 33 0
-9 -15 -33 0
7 10 32 0
-7 -10 -32 0
10 16 33 0
-10 -16 -33 0
8 11 32 0
-8 -11 -32 0
11 17 33 0
-11 -17 -33 0
9 12 32 0
-9 -12 -32 0
12 18 33 0
-12 -18 -33 0
1 13 31 0
-1 -13 -31 0
10 13 32 0
-10 -13 -32 0
13 19 33 0
-13 -19 -33 0
2 14 31 0
-2 -14 -31 0
11 14 32 0
-11 -14 -32 0
14 20 33 0
-14 -20 -33 0
3 15 31 0
-3 -15 -31 0
12 15 32 0
-12 -15 -32 0
15 21 33 0
-15 -21 -33 0
4 16 31 0
-4 -16 -31 0
13 16 32 0
-13 -16 -32 0
16 22 33 0
-16 -22 -33 0
5 17 31 0
-5 -17 -31 0
14 17 32 0
-14 -17 -32 0
17 23 33 0
-17 -23 -33 0
6 18 31 0
-6 -18 -31 0
15 18 32 0
-15 -18 -32 0
18 24 33 0
-18 -24 -33 0
7 19 31 0
-7 -19 -31 0
16 19 32 0
-16 -19 -32 0
19 25 33 0
-19 -25 -33 0
8 20 31 0
-8 -20 -31 0
17 20 32 0
-17 -20 -32 0
20 26 33 0
-20 -26 -33 0
9 21 31 0
-9 -21 -31 0
18 21 32 0
-18 -21 -32 0
21 27 33 0
-21 -27 -33 0
1 22 30 0
-1 -22 -30 0
10 22 31 0
-10 -22 -31 0
19 22 32 0
-19 -22 -32 0
22 28 33 0
-22 -28 -33 0
2 23 30 0
-2 -23 -30 0
11 23 31 0
-11 -23 -31 0
20 23 32 0
-20 -23 -32 0
23 29 33 0
-23 -29 -33 0
3 24 30 0
-3 -24 -30 0
12 24 31 0
-12 -24 -31 0
21 24 32 0
-21 -24 -32 0
24 30 33 0
-24 -30 -33 0
4 25 30 0
-4 -25 -30 0
13 25 31 0
-13 -25 -31 0
22 25 32 0
-22 -25 -32 0
25 31 33 0
-25 -31 -33 0
5 26 30 0
-5 -26 -30 0
14 26 31 0
-14 -26 -31 0
23 26 32 0
-23 -26 -32 0
26 32 33 0
-26 -32 -33 0
6 27 30 0
-6 -27 -30 0
15 27 31 0
-15 -27 -31 0
24 27 32 0
-24 -27 -32 0
27 33 0
-27 -33 0
7 28 30 0
-7 -28 -30 0
16 28 31 0
-16 -28 -31 0
25 28 32 0
-25 -28 -32 0
8 29 30 0
-8 -29 -30 0
17 29 31 0
-17 -29 -31 0
26 29 32 0
-26 -29 -32 0
9 30 0
-9 -30 0
18 30 31 0
-18 -30 -31 0
27 30 32 0
-27 -30 -32 0
1 29 31 0
-1 -29 -31 0
10 30 31 0
-10 -30 -31 0
19 31 0
-19 -31 0
28 31 32 0
-28 -31 -32 0
2 29 32 0
-2 -29 -32 0
11 30 32 0
-11 -30 -32 0
20 31 32 0
-20 -31 -32 0
29 32 0
-29 -32 0
3 29 33 0
-3 -29 -33 0
12 30 33 0
-12 -30 -33 0
21 31 33 0
-21 -31 -33 0
30 32 33 0
-30 -32 -33 0
