certificates/rado_a9_c291_N33.drat
-32 -33 0
-33 0
27 0
32 0
-29 0
-24 0
-30 0
3 0
23 0
18 0
0
